# Solution for model problem
# Objective value = 8
CLIENT_PE4_0 1
CLIENT_PE6_1 1
CLIENT_PE0_4 1
src_2 1
ptr_0 1
cache_0 1
tooth_2 1
sink_4 1
CLIENT_PE0_0 0
CLIENT_PE2_0 0
CLIENT_PE3_0 0
CLIENT_PE6_0 0
CLIENT_PE7_0 0
CLIENT_PE13_0 0
CLIENT_PE14_0 0
CLIENT_PE0_1 0
CLIENT_PE2_1 0
CLIENT_PE3_1 0
CLIENT_PE4_1 0
CLIENT_PE7_1 0
CLIENT_PE13_1 0
CLIENT_PE14_1 0
CLIENT_PE1_4 0
CLIENT_PE2_4 0
CLIENT_PE3_4 0
CLIENT_PE4_4 0
CLIENT_PE5_4 0
CLIENT_PE6_4 0
CLIENT_PE7_4 0
CLIENT_PE8_4 0
CLIENT_PE9_4 0
CLIENT_PE10_4 0
CLIENT_PE11_4 0
CLIENT_PE12_4 0
CLIENT_PE13_4 0
CLIENT_PE14_4 0
CLIENT_PE15_4 0
CLIENT_PE16_4 0
src_0 0
src_1 0
src_3 0
src_4 0
ptr_1 0
ptr_2 0
ptr_3 0
ptr_4 0
tooth_0 0
tooth_1 0
tooth_3 0
tooth_4 0
cache_1 0
cache_2 0
cache_3 0
cache_4 0
sink_0 0
sink_1 0
sink_2 0
sink_3 0
